
Gurobi 6.0.4 (win64) logging started 06/18/15 20:04:58

Read LP format model from file E:\Eigene Dateien\Downloads\Michi shit\VRPTWMS2\instances\mip\fuel\N4-C_DV100-C_SV25_F5_7_No_1.lp
Reading time = 0.00 seconds
(null): 129 rows, 76 columns, 459 nonzeros
Optimize a model with 129 rows, 76 columns and 459 nonzeros
Model has 80 quadratic constraints
Coefficient statistics:
  Matrix range    [1e+00, 1e+06]
  Objective range [7e+04, 1e+07]
  Bounds range    [1e+00, 1e+06]
  RHS range       [1e+00, 1e+06]
Presolve removed 19 rows and 14 columns
Presolve time: 0.01s
Presolved: 248 rows, 136 columns, 1043 nonzeros
Variable types: 64 continuous, 72 integer (50 binary)
Found heuristic solution: objective 2.128140e+07

Root relaxation: objective 1.120669e+07, 30 iterations, 0.00 seconds

    Nodes    |    Current Node    |     Objective Bounds      |     Work
 Expl Unexpl |  Obj  Depth IntInf | Incumbent    BestBd   Gap | It/Node Time

     0     0 1.1207e+07    0   11 2.1281e+07 1.1207e+07  47.3%     -    0s
     0     0 1.1366e+07    0    6 2.1281e+07 1.1366e+07  46.6%     -    0s
     0     0 1.1787e+07    0   27 2.1281e+07 1.1787e+07  44.6%     -    0s
H    0     0                    2.091830e+07 1.1787e+07  43.7%     -    0s
     0     0     cutoff    0      2.0918e+07 2.0918e+07  0.00%     -    0s

Cutting planes:
  Gomory: 1
  Cover: 4
  Implied bound: 4
  Clique: 5
  MIR: 9

Explored 0 nodes (150 simplex iterations) in 0.02 seconds
Thread count was 4 (of 4 available processors)

Optimal solution found (tolerance 1.00e-04)
Best objective 2.091830000000e+07, best bound 2.091830000000e+07, gap 0.0%
k_c1	97654.0
k_c2	160000.0
k_c3	90000.0
k_c4	50000.0
k_dN	-0.0
o_1	0.0
o_2	0.0
o_3	0.0
o_4	0.0
p_1	0.0
p_2	0.0
p_3	0.0
p_4	0.0
phi_c1	10784.0
phi_c2	33188.0
phi_c3	26901.0
phi_c4	22171.0
phi_dN	0.0
pi_c1	0.0
pi_c2	0.0
pi_c3	0.0
pi_c4	0.0
pi_dN	-0.0
tauD_c1	339036.0
tauD_c2	100000.0
tauD_c3	183050.0
tauD_c4	450000.0
tauD_d0	-0.0
tauD_dN	1000000.0
tauS_c1	0.0
tauS_c2	283339.0
tauS_c3	0.0
tauS_c4	78317.0
tauS_d0	-0.0
tauS_dN	0.0
x_c1_dN	1.0
x_c2_c3	1.0
x_c3_c4	1.0
x_c4_dN	1.0
x_d0_c1	1.0
x_d0_c2	1.0
